<instance format="XCSP3" type="CSP">
  <variables>
    <var id="x0"> 6 8 10 14 </var>
    <var id="x1"> 2 7 9 10 14 </var>
    <var id="x2"> 2 6..8 10 </var>
    <var id="x3"> 2 6..8 </var>
    <var id="x4"> 2 7 8 12 </var>
    <var id="x5"> 2 10 12 </var>
    <var id="x6"> 6 8 </var>
    <var id="x7"> 2 7 10 12 14 </var>
    <var id="x8"> 2..4 12 </var>
    <var id="x9"> 2 7 </var>
    <var id="x10"> 3 5 </var>
    <var id="x11"> 2 4 9 </var>
    <var id="x12"> 7 9 14 </var>
    <var id="x13"> 2 5 7 12 14 </var>
    <var id="x14"> 2 3 5 </var>
    <var id="x15"> 4 9 14 </var>
    <var id="x16"> 5 11 </var>
    <var id="x17"> 4 10 17 </var>
    <var id="x18"> 7 8 10 16 </var>
    <var id="x19"> 4 7 8 11 16 </var>
    <var id="x20"> 7 8 11 17 </var>
    <var id="x21"> 4 5 10 11 17 </var>
    <var id="x22"> 7 8 10 16 </var>
    <var id="x23"> 4 8 16 </var>
    <var id="x24"> 1 5 14 16 </var>
    <var id="x25"> 2 15 </var>
    <var id="x26"> 2 7 9 14 </var>
    <var id="x27"> 1 2 16 </var>
    <var id="x28"> 2 9 16 </var>
    <var id="x29"> 1 5 7 9 16 </var>
    <var id="x30"> 2 5 15 </var>
    <var id="x31"> 7 9 16 </var>
    <var id="x32"> 6 10 16 17 </var>
    <var id="x33"> 2..4 10 17 </var>
    <var id="x34"> 2 6 </var>
    <var id="x35"> 2 6 10 16 </var>
    <var id="x36"> 2 4 6 11 16 </var>
    <var id="x37"> 2 3 11 17 </var>
    <var id="x38"> 2 3 6 10 11 </var>
    <var id="x39"> 4 10 16 </var>
    <var id="x40"> 11 13 14 </var>
    <var id="x41"> 4 14 17 </var>
    <var id="x42"> 6 13 14 </var>
    <var id="x43"> 6 8 13 16 </var>
    <var id="x44"> 6 11 16 17 </var>
    <var id="x45"> 6 8 13 16 </var>
    <var id="x46"> 4 8 11 16 17 </var>
    <var id="x47"> 8 13 16 </var>
    <var id="x48"> 5 8 14 17 </var>
    <var id="x49"> 5 12..14 </var>
    <var id="x50"> 2 7 14 17 </var>
    <var id="x51"> 2 7 8 </var>
    <var id="x52"> 2 5 12 17 </var>
    <var id="x53"> 5 8 13 </var>
    <var id="x54"> 7 8 13 14 </var>
    <var id="x55"> 8 13 14 </var>
    <var id="x56"> 12 13 15 </var>
    <var id="x57"> 2 12 16 </var>
    <var id="x58"> 2 8 16 </var>
    <var id="x59"> 2 8 10 16 </var>
    <var id="x60"> 2 10 12 13 </var>
    <var id="x61"> 8 10 13 16 </var>
    <var id="x62"> 8 13 16 </var>
    <var id="x63"> 2 10 17 </var>
    <var id="x64"> 2 10 13 </var>
    <var id="x65"> 0 2 5 10 11 17 </var>
    <var id="x66"> 5 13 </var>
    <var id="x67"> 2 10 11 17 </var>
    <var id="x68"> 0 13 </var>
    <var id="x69"> 0 10 13 </var>
    <var id="x70"> 1 3 12 </var>
    <var id="x71"> 0..2 12 </var>
    <var id="x72"> 0..2 12 </var>
    <var id="x73"> 2 3 7 8 12 </var>
    <var id="x74"> 1 3 8 </var>
    <var id="x75"> 1 7..9 </var>
    <var id="x76"> 1 7..9 </var>
    <var id="x77"> 0 2 3 </var>
    <var id="x78"> 1 5 10 16 </var>
    <var id="x79"> 7 10 16 </var>
    <var id="x80"> 0 1 11 12 16 </var>
    <var id="x81"> 0 5 10..12 </var>
    <var id="x82"> 1 5 16 </var>
    <var id="x83"> 1 7 10 16 </var>
    <var id="x84"> 5 7 10..12 </var>
    <var id="x85"> 0 7 10 12 16 </var>
    <var id="x86"> 1 5 10 </var>
    <var id="x87"> 2 3 10 13 15 </var>
    <var id="x88"> 1 2 5 13 </var>
    <var id="x89"> 2 3 11 </var>
    <var id="x90"> 2 5 10 11 13 </var>
    <var id="x91"> 1 5 10 13 </var>
    <var id="x92"> 2 3 5 10 11 15 </var>
    <var id="x93"> 1 13 </var>
    <var id="x94"> 3 4 12 17 </var>
    <var id="x95"> 1 5 12 </var>
    <var id="x96"> 1 12 16 17 </var>
    <var id="x97"> 4 8 16 </var>
    <var id="x98"> 3 8 12 17 </var>
    <var id="x99"> 5 12 </var>
    <var id="x100"> 3 5 </var>
    <var id="x101"> 4 12 16 </var>
    <var id="x102"> 1 3 11 13 15 </var>
    <var id="x103"> 2 3 13 15 </var>
    <var id="x104"> 0..2 11 16 </var>
    <var id="x105"> 2 11 16 </var>
    <var id="x106"> 0 2 11 </var>
    <var id="x107"> 1 3 13 15 16 </var>
    <var id="x108"> 1 13 16 </var>
    <var id="x109"> 0 13 16 </var>
    <var id="x110"> 1 6 10 </var>
    <var id="x111"> 2 4 10 13 </var>
    <var id="x112"> 2 4 10 </var>
    <var id="x113"> 0..2 6 13 </var>
    <var id="x114"> 2 4 10 </var>
    <var id="x115"> 1 10 13 </var>
    <var id="x116"> 1 10 13 </var>
    <var id="x117"> 10 13 </var>
    <var id="x118"> 7 9 10 </var>
    <var id="x119"> 0 6 13 </var>
    <var id="x120"> 7 11 </var>
    <var id="x121"> 0 10 11 </var>
    <var id="x122"> 7 10 11 13 </var>
    <var id="x123"> 7 9 10 13 16 </var>
    <var id="x124"> 0 9 13 16 </var>
    <var id="x125"> 13 14 </var>
    <var id="x126"> 4 10 </var>
    <var id="x127"> 4 8..10 16 </var>
    <var id="x128"> 8..10 13 14 16 </var>
    <var id="x129"> 10 13 14 </var>
    <var id="x130"> 8..10 13 16 </var>
    <var id="x131"> 6 10 </var>
    <var id="x132"> 4 9 10 13 16 </var>
    <var id="x133"> 1 6 8 10 14 17 </var>
    <var id="x134"> 1 12..14 </var>
    <var id="x135"> 1 6 12..14 </var>
    <var id="x136"> 1 6 12 17 </var>
    <var id="x137"> 8 10 17 </var>
    <var id="x138"> 6 10 </var>
    <var id="x139"> 1 8 13 14 </var>
    <var id="x140"> 10 12 13 </var>
  </variables>
  <constraints>
    <group>
      <allDifferent> %... </allDifferent>
      <args> x0 x1 x2 x3 x4 x5 x6 x7 </args>
      <args> x8 x9 x10 x11 x12 x13 x14 x15 </args>
      <args> x16 x17 x18 x19 x20 x21 x22 x23 </args>
      <args> x24 x25 x26 x27 x28 x29 x30 x31 </args>
      <args> x32 x33 x34 x35 x36 x37 x38 x39 </args>
      <args> x40 x41 x42 x43 x44 x45 x46 x47 </args>
      <args> x48 x49 x50 x51 x52 x53 x54 x55 </args>
      <args> x56 x57 x58 x59 x60 x61 x62 </args>
      <args> x63 x64 x65 x66 x67 x68 x69 </args>
      <args> x70 x71 x72 x73 x74 x75 x76 x77 </args>
      <args> x78 x79 x80 x81 x82 x83 x84 x85 </args>
      <args> x86 x87 x88 x89 x90 x91 x92 x93 </args>
      <args> x94 x95 x96 x97 x98 x99 x100 x101 </args>
      <args> x102 x103 x104 x105 x106 x107 x108 x109 </args>
      <args> x110 x111 x112 x113 x114 x115 x116 </args>
      <args> x117 x118 x119 x120 x121 x122 x123 x124 </args>
      <args> x125 x126 x127 x128 x129 x130 x131 x132 </args>
      <args> x133 x134 x135 x136 x137 x138 x139 x140 </args>
      <args> x0 x24 x32 x48 x78 x86 x110 x133 </args>
      <args> x16 x40 x49 x56 x70 x102 x125 x134 </args>
      <args> x8 x17 x25 x87 x94 x103 x111 x117 </args>
      <args> x1 x26 x33 x41 x50 x63 x112 x118 </args>
      <args> x34 x42 x71 x88 x95 x113 x119 x135 </args>
      <args> x2 x9 x18 x35 x43 x64 x79 </args>
      <args> x27 x44 x57 x72 x80 x96 x104 x136 </args>
      <args> x3 x19 x36 x51 x58 x97 x105 </args>
      <args> x4 x20 x37 x73 x89 x98 x120 </args>
      <args> x5 x21 x52 x65 x81 x106 x121 x126 </args>
      <args> x6 x10 x45 x53 x66 x74 x82 x107 </args>
      <args> x11 x28 x46 x59 x67 x114 x127 x137 </args>
      <args> x12 x22 x54 x75 x83 x108 x115 x128 </args>
      <args> x7 x13 x60 x84 x90 x99 x122 x129 </args>
      <args> x29 x47 x61 x76 x91 x116 x123 x130 </args>
      <args> x14 x30 x38 x77 x92 x100 x131 x138 </args>
      <args> x15 x23 x55 x62 x68 x93 x124 x139 </args>
      <args> x31 x39 x69 x85 x101 x109 x132 x140 </args>
    </group>
  </constraints>
</instance>

